(set-logic LIA)
(synth-fun next ((brake Int) (distance Int) (speed Int) (throttle Int) (ignition Bool) (time Int) ) Int
	((Start Int) (Var Int) (StartBool Bool))
	((Start Int (
				 1
				 2
				 6
				 7
				 (ite StartBool Start Start)))

	(Var Int (
			 0
			 1
			 2
			 3
			 4
			 7
			 671
			 1018
			 brake
			 distance
			 speed
			 throttle
			 time
			 (+ Var Var)						
			 (- Var Var)						
			 (* Var Var)))

	(StartBool Bool (
				 	 ignition
					(= Var Var)						
					(>= Var Var)						
					(<= Var Var)						
					(and StartBool StartBool)			
					(or  StartBool StartBool)				
					(not StartBool)))))

(constraint (= (next 0 0 0 0 true 1274 ) 1))
(constraint (= (next 0 0 0 0 true 1737 ) 7))
(constraint (= (next 0 0 0 0 true 1467 ) 2))
(constraint (= (next 0 0 0 0 true 339 ) 7))
(constraint (= (next 0 0 16 9 true 272 ) 6))

(check-synth)
